%nprocshared=24                                                                      
%mem=23500MB                                                                         
%chk=DAC_061222_MC_TTC_THF_Thiago.chk                                                
%rwf=/scr/guest/DAC,500GB                                                            
#p opt freq=noraman M062X/6-31g(d,p) scrf=(iefpcm,solvent=thf) scf=maxcycle=2000 maxd
                                                                                     
Estruturas que vieram da MC2                                                         
                                                                                     
0 1                                                                               
 C       1.497582       2.904662      -0.579039                                 
 C       1.763682       1.923092       0.482951                                 
 C       2.662482       2.244152       1.515461                                 
 C       3.302722       3.459032       1.551781                                 
 C       3.074482       4.434722       0.542031                                 
 C       2.214562       4.166312      -0.470129                                 
 H       2.860282       1.524372       2.301491                                 
 H       3.597582       5.380632       0.604291                                 
 H       2.024672       4.895022      -1.250539                                 
 N       4.211182       3.747272       2.618981                                 
 O       4.772472       4.844332       2.630961                                 
 O       4.402812       2.894382       3.487821                                 
 O       0.711922       2.698372      -1.523669                                 
 C       1.151982       0.647142       0.527811                                 
 H       1.441912       0.041072       1.379931                                 
 C       0.252822       0.128022      -0.378909                                 
 H      -0.007988       0.768692      -1.208439                                 
 C      -0.328548      -1.144588      -0.283909                                 
 C      -0.125518      -2.223248       0.782221                                 
 N      -1.196078      -1.589058      -1.203949                                 
 C      -2.538268      -3.696718      -1.604449                                 
 C      -2.791918      -4.965928      -1.087859                                 
 C      -2.177568      -5.407228       0.081441                                 
 C      -1.289958      -4.581738       0.771481                                 
 C      -1.028928      -3.320968       0.266171                                 
 C      -1.646928      -2.900878      -0.903869                                 
 H      -3.047208      -3.342938      -2.491009                                 
 H      -3.486098      -5.616978      -1.607939                                 
 H      -2.394278      -6.399598       0.461211                                 
 H      -0.815278      -4.926328       1.684551                                 
 C      -0.601248      -1.749768       2.168891                                 
 H      -1.631398      -1.389548       2.128061                                 
 H      -0.561228      -2.589228       2.866541                                 
 H       0.027372      -0.951538       2.564891                                 
 C       1.334792      -2.713238       0.821971                                 
 H       1.670692      -3.025468      -0.169139                                 
 H       2.014772      -1.944498       1.189961                                 
 H       1.404222      -3.573188       1.491781                                 
 C      -1.583198      -0.846178      -2.404449                                 
 H      -0.680148      -0.411888      -2.833779                                 
 H      -1.975508      -1.562258      -3.124319                                 
 C      -2.615698       0.245372      -2.142149                                 
 H      -2.378888       0.826102      -1.249219                                 
 H      -2.600068       0.950982      -2.979929                                 
 C      -4.028168      -0.273978      -2.048189                                 
 O      -4.418588      -1.323928      -2.507779                                 
 O      -4.833098       0.592122      -1.425409                                 
 H      -5.732758       0.224442      -1.440239                                 
 O      -0.449088       1.752871       3.615271                                 
 H      -0.887988       1.375871       4.409691                                 
 C      -1.284838       1.511771       2.485111                                 
 H      -1.354908       0.438841       2.264261                                 
 H      -2.298988       1.911291       2.626221                                 
 H      -0.825058       2.013101       1.629881                                 
 O       3.781232      -0.875739      -1.236179                                 
 H       4.167782      -1.088509      -0.358079                                 
 C       4.188502       0.442471      -1.597199                                 
 H       3.749122       1.191971      -0.926319                                 
 H       5.281652       0.556241      -1.587809                                 
 H       3.824212       0.627461      -2.610679                                 
 O      -0.010118       3.126161      -3.177169                                 
 H       0.260772       3.016762      -2.238849                                 
 C       0.498342       4.372761      -3.647629                                 
 H       0.019532       5.216541      -3.134189                                 
 H       1.587072       4.451811      -3.519419                                 
 H       0.264042       4.436381      -4.713059                                 
 O      -0.444088      -1.853279      -5.091669                                 
 H       0.020992      -1.423179      -5.843019                                 
 C       0.467202      -2.744449      -4.451979                                 
 H       0.734202      -3.580609      -5.111069                                 
 H       1.388442      -2.237179      -4.132489                                 
 H      -0.037788      -3.145278      -3.569689                                 
 O       2.724862      -2.250268       4.488681                                 
 H       3.397242      -1.596249       4.781921                                 
 C       1.480482      -1.918599       5.101391                                 
 H       1.524572      -2.054639       6.189701                                 
 H       1.174152      -0.885299       4.885771                                 
 H       0.728572      -2.600269       4.696351                                 
 O      -0.456018       4.588632       3.318301                                 
 H      -0.245908       3.636791       3.443591                                 
 C      -1.778788       4.690141       2.795041                                 
 H      -1.838988       4.270621       1.782501                                 
 H      -2.517258       4.183901       3.432601                                 
 H      -2.026518       5.753282       2.745781                                 
 O      -4.515158      -2.883358       2.185681                                 
 H      -5.162178      -3.617359       2.277481                                 
 C      -5.171177      -1.784129       1.556991                                 
 H      -5.446578      -2.024739       0.522041                                 
 H      -6.074488      -1.473789       2.100821                                 
 H      -4.464808      -0.950519       1.543551                                 
 O       5.442173      -1.116619       1.064561                                 
 H       6.074412      -0.526199       1.530891                                 
 C       5.165342      -2.232259       1.908701                                 
 H       6.057282      -2.856838       2.047261                                 
 H       4.792372      -1.923559       2.895451                                 
 H       4.396402      -2.829959       1.413181                                 
 O       1.573452      -4.690379       3.124811                                 
 H       1.909442      -3.860659       3.530391                                 
 C       0.536362      -5.207219       3.956181                                 
 H       0.929992      -5.529028       4.929021                                 
 H      -0.265448      -4.474288       4.123451                                 
 H       0.116502      -6.077719       3.446261                                 
 O      -3.935958       0.438121       3.917131                                 
 H      -4.396637       0.777781       3.118241                                 
 C      -4.891508      -0.238489       4.731371                                 
 H      -5.636978       0.459921       5.133011                                 
 H      -5.412598      -1.036349       4.183701                                 
 H      -4.346688      -0.683609       5.567501                                 
 O      -5.989628       1.500831       2.389211                                 
 H      -6.880348       1.664621       2.770781                                 
 C      -5.774198       2.438321       1.336341                                 
 H      -6.458457       2.257871       0.497261                                 
 H      -5.894748       3.477131       1.674561                                 
 H      -4.748998       2.299661       0.984401                                 
 O      -1.766498       0.486771       5.574551                                 
 H      -2.523148       0.655991       4.970691                                 
 C      -2.213118       0.675201       6.915771                                 
 H      -2.472368       1.724961       7.104591                                 
 H      -3.082508       0.047011       7.155761                                 
 H      -1.386228       0.397871       7.574101                                 
 O       5.103142      -2.718999      -2.853559                                 
 H       4.447473      -2.270229      -2.275179                                 
 C       5.967982      -3.498089      -2.029569                                 
 H       6.581172      -2.859109      -1.381059                                 
 H       5.413302      -4.210419      -1.402679                                 
 H       6.631443      -4.056788      -2.694209                                 
 O      -1.646758       7.399111      -0.226839                                 
 H      -0.975568       8.069511       0.029921                                 
 C      -0.991738       6.139882      -0.365349                                 
 H      -0.289708       6.147721      -1.209119                                 
 H      -0.447618       5.852781       0.545441                                 
 H      -1.764608       5.393231      -0.563549                                 
 O       3.260672      -6.158618      -0.886859                                 
 H       3.966602      -6.731628      -1.259899                                 
 C       3.635472      -5.792299       0.439511                                 
 H       3.646512      -6.665248       1.104851                                 
 H       4.621902      -5.308679       0.473401                                 
 H       2.885062      -5.086839       0.804581                                 
 O       4.162992       2.200821      -5.364279                                 
 H       4.478152       1.351491      -5.745279                                 
 C       2.927072       2.540821      -5.989419                                 
 H       3.068892       2.765321      -7.054459                                 
 H       2.179272       1.741171      -5.892549                                 
 H       2.549272       3.437851      -5.492699                                 
 O      -4.265818       6.067691       0.772401                                 
 H      -3.444448       6.564332       0.561381                                 
 C      -4.618968       5.282521      -0.364559                                 
 H      -4.904687       5.917622      -1.212989                                 
 H      -3.802558       4.617301      -0.679289                                 
 H      -5.480428       4.672681      -0.081639                                 


