%nprocshared=24                                                                      
%mem=23500MB                                                                         
%chk=DAC_061222_MC_TTC_THF_Thiago.chk                                                
%rwf=/scr/guest/DAC,500GB                                                            
#p opt freq=noraman M062X/6-31g(d,p) scrf=(iefpcm,solvent=thf) scf=maxcycle=2000 maxd
                                                                                     
Estruturas que vieram da MC2                                                         
                                                                                     
0 1                                                                                 
 C       1.497582       2.904662      -0.579039                                 
 C       1.763682       1.923092       0.482951                                 
 C       2.662482       2.244152       1.515461                                 
 C       3.302722       3.459032       1.551781                                 
 C       3.074482       4.434722       0.542031                                 
 C       2.214562       4.166312      -0.470129                                 
 H       2.860282       1.524372       2.301491                                 
 H       3.597582       5.380632       0.604291                                 
 H       2.024672       4.895022      -1.250539                                 
 N       4.211182       3.747272       2.618981                                 
 O       4.772472       4.844332       2.630961                                 
 O       4.402812       2.894382       3.487821                                 
 O       0.711922       2.698372      -1.523669                                 
 C       1.151982       0.647142       0.527811                                 
 H       1.441912       0.041072       1.379931                                 
 C       0.252822       0.128022      -0.378909                                 
 H      -0.007988       0.768692      -1.208439                                 
 C      -0.328548      -1.144588      -0.283909                                 
 C      -0.125518      -2.223248       0.782221                                 
 N      -1.196078      -1.589058      -1.203949                                 
 C      -2.538268      -3.696718      -1.604449                                 
 C      -2.791918      -4.965928      -1.087859                                 
 C      -2.177568      -5.407228       0.081441                                 
 C      -1.289958      -4.581738       0.771481                                 
 C      -1.028928      -3.320968       0.266171                                 
 C      -1.646928      -2.900878      -0.903869                                 
 H      -3.047208      -3.342938      -2.491009                                 
 H      -3.486098      -5.616978      -1.607939                                 
 H      -2.394278      -6.399598       0.461211                                 
 H      -0.815278      -4.926328       1.684551                                 
 C      -0.601248      -1.749768       2.168891                                 
 H      -1.631398      -1.389548       2.128061                                 
 H      -0.561228      -2.589228       2.866541                                 
 H       0.027372      -0.951538       2.564891                                 
 C       1.334792      -2.713238       0.821971                                 
 H       1.670692      -3.025468      -0.169139                                 
 H       2.014772      -1.944498       1.189961                                 
 H       1.404222      -3.573188       1.491781                                 
 C      -1.583198      -0.846178      -2.404449                                 
 H      -0.680148      -0.411888      -2.833779                                 
 H      -1.975508      -1.562258      -3.124319                                 
 C      -2.615698       0.245372      -2.142149                                 
 H      -2.378888       0.826102      -1.249219                                 
 H      -2.600068       0.950982      -2.979929                                 
 C      -4.028168      -0.273978      -2.048189                                 
 O      -4.418588      -1.323928      -2.507779                                 
 O      -4.833098       0.592122      -1.425409                                 
 H      -5.732758       0.224442      -1.440239                                 
 O      -0.151537       2.641441       3.024601                                 
 H      -0.479667       2.268261       3.872511                                 
 C      -1.189547       2.526801       2.053391                                 
 H      -1.397837       1.475461       1.816451                                 
 H      -2.121547       3.006821       2.383511                                 
 H      -0.839757       3.024671       1.145691                                 
 O       1.824933      -0.791929      -3.920909                                 
 H       1.986183       0.177431      -3.933229                                 
 C       2.758853      -1.389929      -3.024229                                 
 H       3.785953      -1.297589      -3.400249                                 
 H       2.708943      -0.949419      -2.018469                                 
 H       2.508033      -2.451339      -2.956249                                 
 O       2.188673       1.820961      -3.464459                                 
 H       1.994193       2.189251      -2.574329                                 
 C       3.390353       2.420551      -3.944389                                 
 H       3.253513       3.494271      -4.126719                                 
 H       4.229353       2.283711      -3.247699                                 
 H       3.637513       1.936101      -4.892189                                 
 O      -0.307817       0.999031       5.213151                                 
 H      -1.032526       0.395311       5.489041                                 
 C       0.926133       0.290471       5.308821                                 
 H       1.166003       0.049121       6.352401                                 
 H       0.917013      -0.639659       4.723301                                 
 H       1.706973       0.946031       4.915671                                 
 O      -5.205767      -1.540889       0.842641                                 
 H      -6.150007      -1.751539       1.015381                                 
 C      -5.119897      -0.863389      -0.409379                                 
 H      -5.399237      -1.525149      -1.239369                                 
 H      -5.756107       0.032291      -0.441029                                 
 H      -4.078547      -0.560119      -0.542369                                 
 O      -1.294057       4.168351      -4.203049                                 
 H      -1.102077       4.981221      -4.720949                                 
 C      -1.247766       4.499351      -2.816619                                 
 H      -0.231387       4.775741      -2.507669                                 
 H      -1.930997       5.322231      -2.563389                                 
 H      -1.549347       3.608061      -2.260959                                 
 O       3.208053      -3.999189       3.042131                                 
 H       3.440603      -3.047779       3.123261                                 
 C       3.730393      -4.484089       1.806851                                 
 H       3.227513      -4.015139       0.951251                                 
 H       4.812613      -4.313709       1.718501                                 
 H       3.539803      -5.559619       1.774941                                 
 O       1.462193       4.625381       3.615631                                 
 H       0.981383       3.788501       3.430431                                 
 C       0.847213       5.670641       2.865251                                 
 H       0.984933       5.519751       1.786771                                 
 H      -0.228067       5.755841       3.076461                                 
 H       1.336883       6.604951       3.150531                                 
 O       0.702173      -2.574109      -5.509479                                 
 H       1.111993      -2.002609      -4.822999                                 
 C       0.733503      -3.922659      -5.046569                                 
 H       1.763824      -4.294139      -4.973959                                 
 H       0.246023      -4.036959      -4.068119                                 
 H       0.196573      -4.529059      -5.780109                                 
 O       4.468763      -1.843199       3.485071                                 
 H       5.370783      -1.623269       3.162831                                 
 C       4.502743      -1.896239       4.909811                                 
 H       5.120403      -2.732549       5.261791                                 
 H       4.883833      -0.964359       5.350791                                 
 H       3.477063      -2.053809       5.252271                                 
 O      -5.678137       2.964461       1.812681                                 
 H      -6.424447       3.590861       1.684321                                 
 C      -6.218447       1.662421       2.028781                                 
 H      -6.770597       1.613441       2.976191                                 
 H      -6.885706       1.349471       1.213381                                 
 H      -5.376777       0.967461       2.081001                                 
 O       6.821754      -0.837279       2.407401                                 
 H       7.437063      -0.112889       2.657321                                 
 C       6.212353      -0.497979       1.163461                                 
 H       5.560303       0.378981       1.266411                                 
 H       6.955143      -0.296849       0.378691                                 
 H       5.601323      -1.351259       0.859161                                 
 O      -2.763007       2.227771      -5.432399                                 
 H      -2.535897       3.121141      -5.091649                                 
 C      -4.180647       2.145941      -5.564549                                 
 H      -4.674257       2.188631      -4.585069                                 
 H      -4.585047       2.946281      -6.200109                                 
 H      -4.407437       1.181731      -6.026009                                 
 O      -0.667837      -4.011949       5.329111                                 
 H      -1.622487      -3.887559       5.526541                                 
 C       0.087583      -3.275229       6.288511                                 
 H      -0.067837      -2.194869       6.172121                                 
 H      -0.161997      -3.559799       7.320401                                 
 H       1.142523      -3.495759       6.108121                                 
 O      -0.908157      -1.321539      -7.462849                                 
 H      -0.228957      -1.613349      -6.815259                                 
 C      -1.970816      -0.696239      -6.746159                                 
 H      -2.502257      -1.418469      -6.113059                                 
 H      -1.615967       0.132301      -6.117129                                 
 H      -2.671467      -0.301279      -7.485869                                 
 O       7.202003       2.655321      -1.823099                                 
 H       7.155523       3.633421      -1.739579                                 
 C       6.615123       2.078041      -0.658529                                 
 H       7.211813       2.295551       0.236741                                 
 H       5.587323       2.430811      -0.493439                                 
 H       6.595813       0.995811      -0.808519                                 
 O      -0.204867      -7.157839       0.456251                                 
 H      -0.674947      -7.825699       1.002891                                 
 C       1.063713      -7.694359       0.086551                                 
 H       1.711953      -7.822169       0.963091                                 
 H       0.971283      -8.660409      -0.429459                                 
 H       1.533303      -6.977109      -0.591039                                 


